c Result of efficient AIG-to-CNF conversion using package CNF
p cnf 642 2329
-2 -610 470 0
-2 -3 470 0
-2 43 470 0
2 -470 0
2 610 3 -43 0
3 -605 4 -30 0
3 605 4 -15 0
-3 -4 0
-3 -605 30 0
-3 605 15 0
-4 5 11 13 14 0
4 -14 0
4 -5 0
4 -13 0
4 -11 0
-5 602 603 6 8 0
5 -602 0
5 -8 0
5 -6 0
5 -603 0
-6 594 600 601 7 0
6 -7 0
6 -601 0
6 -594 0
6 -600 0
-7 598 599 604 0
7 -598 0
7 -604 0
7 -599 0
-8 595 596 597 9 0
8 -9 0
8 -597 0
8 -595 0
8 -596 0
-9 590 591 10 0
9 -10 0
9 -591 0
9 -590 0
-10 586 587 592 593 0
10 -593 0
10 -592 0
10 -586 0
10 -587 0
-11 584 588 589 12 0
11 -12 0
11 -589 0
11 -584 0
11 -588 0
-12 582 583 0
12 -582 0
12 -583 0
-13 578 585 0
13 -578 0
13 -585 0
-14 579 580 581 0
14 -579 0
14 -581 0
14 -580 0
-15 606 16 0
-15 -606 23 0
15 -606 -23 0
15 606 -16 0
-16 607 17 0
-16 -607 20 0
16 -607 -20 0
16 607 -17 0
-17 608 19 0
-17 -608 18 0
17 -608 -18 0
17 608 -19 0
18 -581 -609 0
18 -580 609 0
-18 580 609 0
-18 581 -609 0
19 -579 -609 0
19 -578 609 0
-19 578 609 0
-19 579 -609 0
20 608 -21 0
20 -608 -22 0
-20 -608 22 0
-20 608 21 0
21 -583 -609 0
21 -582 609 0
-21 582 609 0
-21 583 -609 0
22 -585 -609 0
22 -584 609 0
-22 584 609 0
-22 585 -609 0
23 607 -24 0
23 -607 -27 0
-23 -607 27 0
-23 607 24 0
24 608 -25 0
24 -608 -26 0
-24 -608 26 0
-24 608 25 0
25 -587 -609 0
25 -586 609 0
-25 586 609 0
-25 587 -609 0
26 -589 -609 0
26 -588 609 0
-26 588 609 0
-26 589 -609 0
27 608 -28 0
27 -608 -29 0
-27 -608 29 0
-27 608 28 0
28 -591 -609 0
28 -590 609 0
-28 590 609 0
-28 591 -609 0
29 -593 -609 0
29 -592 609 0
-29 592 609 0
-29 593 -609 0
30 606 -31 0
30 -606 -38 0
-30 -606 38 0
-30 606 31 0
31 607 -32 0
31 -607 -35 0
-31 -607 35 0
-31 607 32 0
32 608 -33 0
32 -608 -34 0
-32 -608 34 0
-32 608 33 0
33 -595 -609 0
33 -594 609 0
-33 594 609 0
-33 595 -609 0
34 -597 -609 0
34 -596 609 0
-34 596 609 0
-34 597 -609 0
35 608 -36 0
35 -608 -37 0
-35 -608 37 0
-35 608 36 0
36 -599 -609 0
36 -598 609 0
-36 598 609 0
-36 599 -609 0
37 -601 -609 0
37 -600 609 0
-37 600 609 0
-37 601 -609 0
38 607 -39 0
38 -607 -42 0
-38 -607 42 0
-38 607 39 0
39 608 -40 0
39 -608 -41 0
-39 -608 41 0
-39 608 40 0
40 -603 -609 0
40 -602 609 0
-40 602 609 0
-40 603 -609 0
41 -605 -609 0
41 -604 609 0
-41 604 609 0
-41 605 -609 0
-42 607 608 -609 0
-42 606 608 609 0
42 -608 0
42 -606 609 0
42 -607 -609 0
-43 -44 384 428 0
-43 104 384 428 0
43 -428 0
43 -384 0
43 44 -104 0
-44 45 88 0
44 -45 0
44 -88 0
-45 612 613 46 61 0
45 -61 0
45 -46 0
45 -612 0
45 -613 0
46 -605 4 -54 0
46 605 4 -47 0
-46 -4 0
-46 -605 54 0
-46 605 47 0
-47 606 48 0
-47 -606 51 0
47 -606 -51 0
47 606 -48 0
-48 607 49 0
-48 -607 50 0
48 -607 -50 0
48 607 -49 0
-49 -608 21 0
-49 608 18 0
49 608 -18 0
49 -608 -21 0
50 608 -22 0
50 -608 -25 0
-50 -608 25 0
-50 608 22 0
51 607 -52 0
51 -607 -53 0
-51 -607 53 0
-51 607 52 0
52 608 -26 0
52 -608 -28 0
-52 -608 28 0
-52 608 26 0
53 608 -29 0
53 -608 -33 0
-53 -608 33 0
-53 608 29 0
54 606 -55 0
54 -606 -58 0
-54 -606 58 0
-54 606 55 0
55 607 -56 0
55 -607 -57 0
-55 -607 57 0
-55 607 56 0
56 608 -34 0
56 -608 -36 0
-56 -608 36 0
-56 608 34 0
57 608 -37 0
57 -608 -40 0
-57 -608 40 0
-57 608 37 0
58 607 -59 0
58 -607 608 -609 0
-58 -607 -608 0
-58 607 59 0
-58 -607 609 0
59 608 -41 0
59 -608 -60 0
-59 -608 60 0
-59 608 41 0
60 -607 -609 0
60 -606 609 0
-60 606 609 0
-60 607 -609 0
61 -605 4 -77 0
61 605 4 -62 0
-61 -4 0
-61 -605 77 0
-61 605 62 0
-62 606 63 0
-62 -606 70 0
62 -606 -70 0
62 606 -63 0
-63 607 64 0
-63 -607 67 0
63 -607 -67 0
63 607 -64 0
-64 608 66 0
-64 -608 65 0
64 -608 -65 0
64 608 -66 0
65 -584 -609 0
65 -583 609 0
-65 583 609 0
-65 584 -609 0
66 -582 -609 0
66 -581 609 0
-66 581 609 0
-66 582 -609 0
67 608 -68 0
67 -608 -69 0
-67 -608 69 0
-67 608 68 0
68 -586 -609 0
68 -585 609 0
-68 585 609 0
-68 586 -609 0
69 -588 -609 0
69 -587 609 0
-69 587 609 0
-69 588 -609 0
70 607 -71 0
70 -607 -74 0
-70 -607 74 0
-70 607 71 0
71 608 -72 0
71 -608 -73 0
-71 -608 73 0
-71 608 72 0
72 -590 -609 0
72 -589 609 0
-72 589 609 0
-72 590 -609 0
73 -592 -609 0
73 -591 609 0
-73 591 609 0
-73 592 -609 0
74 608 -75 0
74 -608 -76 0
-74 -608 76 0
-74 608 75 0
75 -594 -609 0
75 -593 609 0
-75 593 609 0
-75 594 -609 0
76 -596 -609 0
76 -595 609 0
-76 595 609 0
-76 596 -609 0
77 606 -78 0
77 -606 -85 0
-77 -606 85 0
-77 606 78 0
78 607 -79 0
78 -607 -82 0
-78 -607 82 0
-78 607 79 0
79 608 -80 0
79 -608 -81 0
-79 -608 81 0
-79 608 80 0
80 -598 -609 0
80 -597 609 0
-80 597 609 0
-80 598 -609 0
81 -600 -609 0
81 -599 609 0
-81 599 609 0
-81 600 -609 0
82 608 -83 0
82 -608 -84 0
-82 -608 84 0
-82 608 83 0
83 -602 -609 0
83 -601 609 0
-83 601 609 0
-83 602 -609 0
84 -604 -609 0
84 -603 609 0
-84 603 609 0
-84 604 -609 0
85 607 -86 0
-85 -607 0
-85 86 0
86 -607 -608 0
86 608 -87 0
86 -608 -609 0
-86 608 87 0
-86 607 -608 609 0
87 -606 -609 0
87 -605 609 0
-87 605 609 0
-87 606 -609 0
-88 611 89 0
88 -611 0
88 -89 0
89 -605 4 -98 0
89 605 4 -90 0
-89 -4 0
-89 -605 98 0
-89 605 90 0
-90 606 91 0
-90 -606 95 0
90 -606 -95 0
90 606 -91 0
-91 607 92 0
-91 -607 94 0
91 -607 -94 0
91 607 -92 0
-92 608 93 0
-92 -608 66 0
92 -608 -66 0
92 608 -93 0
93 -580 -609 0
93 -579 609 0
-93 579 609 0
-93 580 -609 0
94 608 -65 0
94 -608 -68 0
-94 -608 68 0
-94 608 65 0
95 607 -96 0
95 -607 -97 0
-95 -607 97 0
-95 607 96 0
96 608 -69 0
96 -608 -72 0
-96 -608 72 0
-96 608 69 0
97 608 -73 0
97 -608 -75 0
-97 -608 75 0
-97 608 73 0
98 606 -99 0
98 -606 -102 0
-98 -606 102 0
-98 606 99 0
99 607 -100 0
99 -607 -101 0
-99 -607 101 0
-99 607 100 0
100 608 -76 0
100 -608 -80 0
-100 -608 80 0
-100 608 76 0
101 608 -81 0
101 -608 -83 0
-101 -608 83 0
-101 608 81 0
102 607 -103 0
102 -607 608 609 0
-102 -607 -608 0
-102 607 103 0
-102 -607 -609 0
103 608 -84 0
103 -608 -87 0
-103 -608 87 0
-103 608 84 0
-104 105 -267 298 0
-104 105 294 298 0
104 -105 0
104 -298 0
104 267 -294 0
105 136 234 -260 0
105 -106 234 -260 0
-105 -234 0
-105 260 0
-105 106 -136 0
-106 107 112 117 0
106 -117 0
106 -112 0
106 -107 0
107 -605 4 -111 0
107 605 4 -108 0
-107 -4 0
-107 -605 111 0
-107 605 108 0
108 606 -109 0
108 -606 -110 0
-108 -606 110 0
-108 606 109 0
109 607 -53 0
109 -607 -56 0
-109 -607 56 0
-109 607 53 0
110 607 -57 0
110 -607 -59 0
-110 -607 59 0
-110 607 57 0
111 606 607 608 -609 0
-111 609 0
-111 -608 0
-111 -606 0
-111 -607 0
112 -113 116 0
-112 113 0
-112 -116 0
113 606 -115 0
113 -606 -114 0
113 606 -110 0
-113 -606 114 0
-113 606 110 115 0
114 607 608 -609 0
-114 609 0
-114 -608 0
-114 -607 0
115 607 -101 0
115 -607 -103 0
-115 -607 103 0
-115 607 101 0
-116 605 4 0
116 -605 0
116 -4 0
-117 118 128 130 0
117 -118 0
117 -128 0
117 -130 0
-118 119 125 0
118 -119 0
118 -125 0
-119 120 121 0
119 -120 0
119 -121 0
120 -77 116 0
-120 77 0
-120 -116 0
121 116 -122 0
-121 -116 0
-121 122 0
122 606 -123 0
122 -606 -124 0
-122 -606 124 0
-122 606 123 0
123 607 -35 0
123 -607 -39 0
-123 -607 39 0
-123 607 35 0
124 607 -608 0
124 -606 607 609 0
-124 -607 0
-124 608 -609 0
-124 606 608 0
125 606 116 -127 0
125 -606 116 -126 0
-125 -116 0
-125 -606 126 0
-125 606 127 0
126 -607 -608 0
126 607 -82 0
126 -607 -87 0
-126 607 82 0
-126 -607 608 87 0
127 607 -74 0
127 -607 -79 0
-127 -607 79 0
-127 607 74 0
128 116 -129 0
-128 -116 0
-128 129 0
129 606 -38 0
129 606 -102 0
-129 -606 0
-129 38 102 0
-130 131 134 0
130 -131 0
130 -134 0
-131 132 133 0
131 -132 0
131 -133 0
132 -30 116 0
-132 30 0
-132 -116 0
133 -98 116 0
-133 98 0
-133 -116 0
-134 58 135 0
-134 -606 135 0
-134 -116 135 0
134 -135 0
134 606 -58 116 0
135 -54 116 0
-135 54 0
-135 -116 0
136 137 -166 -229 0
136 137 166 -167 0
-136 -137 0
-136 -166 229 0
-136 166 167 0
-137 138 155 0
137 -138 0
137 -155 0
-138 139 142 0
138 -139 0
138 -142 0
139 605 4 -140 0
139 -605 4 -129 0
-139 -4 0
-139 605 140 0
-139 -605 129 0
-140 -606 141 0
-140 606 23 95 0
140 606 -23 0
140 -606 -141 0
140 606 -95 0
-141 31 99 0
141 -31 0
141 -99 0
-142 3 143 0
142 -3 0
142 -143 0
-143 144 145 0
143 -144 0
143 -145 0
-144 46 89 0
144 -46 0
144 -89 0
-145 146 150 0
145 -146 0
145 -150 0
146 605 4 -147 0
146 -605 4 -122 0
-146 -4 0
-146 605 147 0
-146 -605 122 0
-147 606 148 0
-147 -606 149 0
147 -606 -149 0
147 606 -148 0
-148 -607 24 0
-148 607 20 0
148 607 -20 0
148 -607 -24 0
149 607 -27 0
149 -607 -32 0
-149 -607 32 0
-149 607 27 0
150 605 4 -151 0
150 -605 4 -113 0
-150 -4 0
-150 605 151 0
-150 -605 113 0
-151 606 153 0
-151 -606 109 152 0
151 -606 -109 0
151 606 -153 0
151 -606 -152 0
152 607 -97 0
152 -607 -100 0
-152 -607 100 0
-152 607 97 0
-153 -607 154 0
-153 607 50 94 0
153 607 -50 0
153 -607 -154 0
153 607 -94 0
-154 52 96 0
154 -52 0
154 -96 0
-155 156 163 0
155 -156 0
155 -163 0
-156 157 160 0
156 -157 0
156 -160 0
157 605 4 -159 0
157 -605 4 -158 0
-157 -4 0
-157 -605 158 0
-157 605 159 0
158 606 -58 0
-158 -606 0
-158 58 0
159 606 -51 0
159 -606 -55 0
-159 -606 55 0
-159 606 51 0
160 -605 4 -162 0
160 605 4 -161 0
-160 -4 0
-160 -605 162 0
-160 605 161 0
161 606 -70 0
161 -606 -78 0
-161 -606 78 0
-161 606 70 0
162 606 -85 0
-162 -606 0
-162 85 0
163 -605 4 -165 0
163 605 4 -164 0
-163 -4 0
-163 -605 165 0
-163 605 164 0
164 -606 -123 0
164 606 -149 0
-164 606 149 0
-164 -606 123 0
165 606 607 -608 0
-165 608 0
-165 -607 0
-165 -606 0
166 116 -162 0
-166 -116 0
-166 162 0
-167 168 169 0
-167 -168 222 0
167 -168 -222 0
167 168 -169 0
168 606 607 -608 116 0
-168 -606 0
-168 -116 0
-168 608 0
-168 -607 0
-169 -170 209 0
-169 170 171 0
169 170 -171 0
169 -170 -209 0
170 -111 116 0
-170 111 0
-170 -116 0
171 172 -184 0
171 -637 172 -199 0
-171 -172 0
-171 184 199 0
-171 637 184 0
-172 173 174 180 182 0
172 -182 0
172 -173 0
172 -180 0
172 -174 0
-173 612 613 0
173 -612 0
173 -613 0
-174 626 175 178 179 0
174 -626 0
174 -179 0
174 -178 0
174 -175 0
-175 624 625 176 177 0
175 -624 0
175 -177 0
175 -176 0
175 -625 0
-176 627 630 0
176 -627 0
176 -630 0
-177 610 611 628 629 0
177 -629 0
177 -628 0
177 -610 0
177 -611 0
-178 634 635 636 0
178 -634 0
178 -636 0
178 -635 0
-179 617 620 621 0
179 -617 0
179 -621 0
179 -620 0
-180 614 618 619 181 0
180 -181 0
180 -619 0
180 -614 0
180 -618 0
-181 631 633 0
181 -631 0
181 -633 0
-182 622 623 632 183 0
182 -183 0
182 -632 0
182 -622 0
182 -623 0
-183 615 616 0
183 -615 0
183 -616 0
184 637 -638 -192 0
184 637 638 -185 0
-184 -637 0
-184 -638 192 0
-184 638 185 0
-185 639 189 0
-185 -639 186 0
185 -639 -186 0
185 639 -189 0
186 640 -187 0
186 -640 -188 0
-186 -640 188 0
-186 640 187 0
187 -589 -641 0
187 -588 641 0
-187 588 641 0
-187 589 -641 0
188 -591 -641 0
188 -590 641 0
-188 590 641 0
-188 591 -641 0
189 640 -190 0
189 -640 -191 0
-189 -640 191 0
-189 640 190 0
190 -585 -641 0
190 -584 641 0
-190 584 641 0
-190 585 -641 0
191 -587 -641 0
191 -586 641 0
-191 586 641 0
-191 587 -641 0
192 639 -193 0
192 -639 -196 0
-192 -639 196 0
-192 639 193 0
193 640 -194 0
193 -640 -195 0
-193 -640 195 0
-193 640 194 0
194 -593 -641 0
194 -592 641 0
-194 592 641 0
-194 593 -641 0
195 -595 -641 0
195 -594 641 0
-195 594 641 0
-195 595 -641 0
196 640 -197 0
196 -640 -198 0
-196 -640 198 0
-196 640 197 0
197 -597 -641 0
197 -596 641 0
-197 596 641 0
-197 597 -641 0
198 -599 -641 0
198 -598 641 0
-198 598 641 0
-198 599 -641 0
199 638 -200 0
199 -638 -207 0
-199 -638 207 0
-199 638 200 0
200 639 -201 0
200 -639 -204 0
-200 -639 204 0
-200 639 201 0
201 640 -202 0
201 -640 -203 0
-201 -640 203 0
-201 640 202 0
202 -601 -641 0
202 -600 641 0
-202 600 641 0
-202 601 -641 0
203 -603 -641 0
203 -602 641 0
-203 602 641 0
-203 603 -641 0
204 640 -205 0
204 -640 -206 0
-204 -640 206 0
-204 640 205 0
205 -605 -641 0
205 -604 641 0
-205 604 641 0
-205 605 -641 0
206 -607 -641 0
206 -606 641 0
-206 606 641 0
-206 607 -641 0
207 639 640 -208 0
-207 208 0
-207 -640 0
-207 -639 0
208 -609 -641 0
208 -608 641 0
-208 608 641 0
-208 609 -641 0
209 -637 172 -217 0
209 637 172 -210 0
-209 -172 0
-209 -637 217 0
-209 637 210 0
210 638 -211 0
210 -638 -214 0
-210 -638 214 0
-210 638 211 0
211 639 -212 0
211 -639 -213 0
-211 -639 213 0
-211 639 212 0
212 -640 -187 0
212 640 -191 0
-212 640 191 0
-212 -640 187 0
213 640 -188 0
213 -640 -194 0
-213 -640 194 0
-213 640 188 0
214 639 -215 0
214 -639 -216 0
-214 -639 216 0
-214 639 215 0
215 640 -195 0
215 -640 -197 0
-215 -640 197 0
-215 640 195 0
216 640 -198 0
216 -640 -202 0
-216 -640 202 0
-216 640 198 0
217 638 -218 0
-217 -638 0
-217 218 0
218 -219 -221 0
218 639 -219 0
-218 219 0
-218 -639 221 0
-219 639 220 0
219 -639 0
219 -220 0
220 640 -203 0
220 -640 -205 0
-220 -640 205 0
-220 640 203 0
221 640 -206 0
221 -640 -208 0
-221 -640 208 0
-221 640 206 0
222 170 -223 0
222 -170 -226 0
-222 -170 226 0
-222 170 223 0
223 -637 172 -225 0
223 637 172 -224 0
-223 -172 0
-223 -637 225 0
-223 637 224 0
224 638 -192 0
224 -638 -200 0
-224 -638 200 0
-224 638 192 0
225 638 -207 0
-225 -638 0
-225 207 0
226 -227 228 0
-226 227 0
-226 -228 0
227 638 -214 0
227 -638 -218 0
-227 -638 218 0
-227 638 214 0
-228 637 172 0
228 -637 0
228 -172 0
229 168 -230 0
229 -168 170 -233 0
-229 -168 -170 0
-229 168 230 0
-229 -168 233 0
230 170 -231 0
230 -170 -232 0
-230 -170 232 0
-230 170 231 0
231 -199 228 0
-231 199 0
-231 -228 0
232 -217 228 0
-232 217 0
-232 -228 0
233 -225 228 0
-233 225 0
-233 -228 0
-234 235 245 251 254 0
234 -254 0
234 -235 0
234 -251 0
234 -245 0
-235 236 237 240 241 0
235 -241 0
235 -236 0
235 -240 0
235 -237 0
-236 630 121 0
236 -630 0
236 -121 0
-237 632 -116 239 0
-237 632 238 239 0
237 -632 0
237 -239 0
237 116 -238 0
238 606 -126 0
-238 -606 0
-238 126 0
-239 631 633 112 0
239 -631 0
239 -112 0
239 -633 0
-240 614 146 0
240 -614 0
240 -146 0
-241 617 150 183 242 0
241 -617 0
241 -242 0
241 -183 0
241 -150 0
242 605 4 -243 0
242 -605 4 -238 0
-242 -4 0
-242 -605 238 0
-242 605 243 0
243 -606 -127 0
243 606 -244 0
-243 606 244 0
-243 -606 127 0
244 607 -67 0
244 -607 -71 0
-244 -607 71 0
-244 607 67 0
-245 246 247 250 0
245 -246 0
245 -247 0
245 -250 0
-246 634 635 636 128 0
246 -128 0
246 -636 0
246 -634 0
246 -635 0
-247 622 623 248 0
247 -248 0
247 -623 0
247 -622 0
-248 163 249 0
-248 -116 163 0
248 -163 0
248 116 -249 0
-249 606 152 0
-249 -606 115 0
249 -606 -115 0
249 606 -152 0
-250 628 629 120 135 0
250 -135 0
250 -120 0
250 -628 0
250 -629 0
-251 252 253 0
251 -252 0
251 -253 0
-252 627 133 0
252 -627 0
252 -133 0
-253 625 626 125 132 0
253 -132 0
253 -125 0
253 -625 0
253 -626 0
-254 255 256 259 0
254 -255 0
254 -256 0
254 -259 0
-255 624 107 0
255 -624 0
255 -107 0
-256 257 258 0
256 -257 0
256 -258 0
-257 620 157 0
257 -620 0
257 -157 0
-258 618 619 139 0
258 -618 0
258 -139 0
258 -619 0
-259 621 160 0
259 -621 0
259 -160 0
-260 184 261 0
-260 184 262 0
260 -184 0
260 -261 -262 0
-261 637 166 0
261 -637 0
261 -166 0
262 -200 263 0
262 -263 -264 0
-262 200 263 0
-262 -263 264 0
-263 638 168 0
263 -638 0
263 -168 0
264 639 -265 0
-264 -639 0
-264 265 0
265 -208 266 0
-265 208 0
-265 -266 0
-266 640 170 0
266 -640 0
266 -170 0
267 3 -268 283 284 0
-267 -3 0
-267 -284 0
-267 -283 0
-267 268 0
-268 166 -168 279 0
-268 166 168 269 0
268 -166 0
268 -168 -279 0
268 168 -269 0
269 -170 -171 0
269 170 -270 0
-269 170 270 0
-269 -170 171 0
270 172 -271 0
270 -637 172 -276 0
-270 -172 0
-270 271 276 0
-270 637 271 0
271 637 -638 -275 0
271 637 638 -272 0
-271 -637 0
-271 -638 275 0
-271 638 272 0
-272 639 273 0
-272 -639 212 0
272 -639 -212 0
272 639 -273 0
273 -640 -190 0
273 640 -274 0
-273 640 274 0
-273 -640 190 0
274 -583 -641 0
274 -582 641 0
-274 582 641 0
-274 583 -641 0
275 639 -213 0
275 -639 -215 0
-275 -639 215 0
-275 639 213 0
276 638 -277 0
276 -638 -278 0
-276 -638 278 0
-276 638 277 0
277 639 -216 0
277 -639 -220 0
-277 -639 220 0
-277 639 216 0
278 639 -221 0
-278 -639 0
-278 221 0
279 -170 -223 0
279 170 -280 0
-279 170 280 0
-279 -170 223 0
280 -637 172 -282 0
280 637 172 -281 0
-280 -172 0
-280 -637 282 0
-280 637 281 0
281 638 -275 0
281 -638 -277 0
-281 -638 277 0
-281 638 275 0
282 638 -278 0
-282 -638 0
-282 278 0
-283 107 139 156 0
283 -156 0
283 -139 0
283 -107 0
-284 143 166 285 0
-284 143 285 -289 0
284 -143 0
284 -285 0
284 -166 289 0
-285 118 248 286 0
285 -118 0
285 -248 0
285 -286 0
-286 131 287 0
286 -131 0
286 -287 0
-287 134 288 0
287 -134 0
287 -288 0
-288 112 128 0
288 -112 0
288 -128 0
289 168 -290 0
289 -168 -292 0
-289 -168 292 0
-289 168 290 0
290 -170 -231 0
290 170 -291 0
-290 170 291 0
-290 -170 231 0
291 228 -276 0
-291 -228 0
-291 276 0
292 -170 -233 0
292 170 -293 0
-292 170 293 0
-292 -170 233 0
293 228 -282 0
-293 -228 0
-293 282 0
294 234 -271 0
294 234 -261 -295 0
-294 -234 0
-294 261 271 0
-294 271 295 0
295 263 -277 0
295 -263 -296 0
-295 -263 296 0
-295 263 277 0
296 639 -297 0
-296 -639 0
-296 297 0
297 -208 -266 0
297 -206 266 0
-297 208 -266 0
-297 206 266 0
-298 -299 380 0
-298 360 -364 0
-298 360 380 0
-298 -299 -364 0
298 299 -360 0
298 364 -380 0
299 -166 300 -353 0
299 166 300 -303 0
-299 -300 0
-299 -166 353 0
-299 166 303 0
-300 117 301 0
300 -117 0
300 -301 0
-301 138 302 0
301 -138 0
301 -302 0
-302 107 125 155 0
302 -155 0
302 -125 0
302 -107 0
-303 168 304 0
-303 -168 346 0
303 -168 -346 0
303 168 -304 0
-304 170 331 0
-304 -170 305 0
304 -170 -305 0
304 170 -331 0
305 172 -306 0
305 -637 172 -321 0
-305 -172 0
-305 306 321 0
-305 637 306 0
306 637 -638 -314 0
306 637 638 -307 0
-306 -637 0
-306 -638 314 0
-306 638 307 0
-307 639 311 0
-307 -639 308 0
307 -639 -308 0
307 639 -311 0
308 640 -309 0
308 -640 -310 0
-308 -640 310 0
-308 640 309 0
309 -590 -641 0
309 -589 641 0
-309 589 641 0
-309 590 -641 0
310 -592 -641 0
310 -591 641 0
-310 591 641 0
-310 592 -641 0
311 640 -312 0
311 -640 -313 0
-311 -640 313 0
-311 640 312 0
312 -586 -641 0
312 -585 641 0
-312 585 641 0
-312 586 -641 0
313 -588 -641 0
313 -587 641 0
-313 587 641 0
-313 588 -641 0
314 639 -315 0
314 -639 -318 0
-314 -639 318 0
-314 639 315 0
315 640 -316 0
315 -640 -317 0
-315 -640 317 0
-315 640 316 0
316 -594 -641 0
316 -593 641 0
-316 593 641 0
-316 594 -641 0
317 -596 -641 0
317 -595 641 0
-317 595 641 0
-317 596 -641 0
318 640 -319 0
318 -640 -320 0
-318 -640 320 0
-318 640 319 0
319 -598 -641 0
319 -597 641 0
-319 597 641 0
-319 598 -641 0
320 -600 -641 0
320 -599 641 0
-320 599 641 0
-320 600 -641 0
321 638 -322 0
321 -638 -329 0
-321 -638 329 0
-321 638 322 0
322 639 -323 0
322 -639 -326 0
-322 -639 326 0
-322 639 323 0
323 640 -324 0
323 -640 -325 0
-323 -640 325 0
-323 640 324 0
324 -602 -641 0
324 -601 641 0
-324 601 641 0
-324 602 -641 0
325 -604 -641 0
325 -603 641 0
-325 603 641 0
-325 604 -641 0
326 640 -327 0
326 -640 -328 0
-326 -640 328 0
-326 640 327 0
327 -606 -641 0
327 -605 641 0
-327 605 641 0
-327 606 -641 0
328 -608 -641 0
328 -607 641 0
-328 607 641 0
-328 608 -641 0
329 639 640 -330 0
-329 330 0
-329 -640 0
-329 -639 0
330 -609 641 0
-330 609 0
-330 -641 0
331 172 -332 0
331 -637 172 -340 0
-331 -172 0
-331 332 340 0
-331 637 332 0
332 637 -638 -337 0
332 637 638 -333 0
-332 -637 0
-332 -638 337 0
-332 638 333 0
-333 639 335 0
-333 -639 334 0
333 -639 -334 0
333 639 -335 0
334 -640 -309 0
334 640 -313 0
-334 640 313 0
-334 -640 309 0
335 -640 -312 0
335 640 -336 0
-335 640 336 0
-335 -640 312 0
336 -584 -641 0
336 -583 641 0
-336 583 641 0
-336 584 -641 0
337 639 -338 0
337 -639 -339 0
-337 -639 339 0
-337 639 338 0
338 640 -310 0
338 -640 -316 0
-338 -640 316 0
-338 640 310 0
339 640 -317 0
339 -640 -319 0
-339 -640 319 0
-339 640 317 0
340 638 -341 0
340 -638 -344 0
-340 -638 344 0
-340 638 341 0
341 639 -342 0
341 -639 -343 0
-341 -639 343 0
-341 639 342 0
342 640 -320 0
342 -640 -324 0
-342 -640 324 0
-342 640 320 0
343 640 -325 0
343 -640 -327 0
-343 -640 327 0
-343 640 325 0
344 639 -345 0
-344 -639 0
-344 345 0
345 640 -328 0
345 -640 -330 0
-345 -640 330 0
-345 640 328 0
346 170 -347 0
346 -170 -350 0
-346 -170 350 0
-346 170 347 0
347 -637 172 -349 0
347 637 172 -348 0
-347 -172 0
-347 -637 349 0
-347 637 348 0
348 638 -337 0
348 -638 -341 0
-348 -638 341 0
-348 638 337 0
349 638 -344 0
-349 -638 0
-349 344 0
350 -637 172 -352 0
350 637 172 -351 0
-350 -172 0
-350 -637 352 0
-350 637 351 0
351 638 -314 0
351 -638 -322 0
-351 -638 322 0
-351 638 314 0
352 638 -329 0
-352 -638 0
-352 329 0
353 168 -354 0
353 -168 -357 0
-353 -168 357 0
-353 168 354 0
354 170 -355 0
354 -170 -356 0
-354 -170 356 0
-354 170 355 0
355 228 -340 0
-355 -228 0
-355 340 0
356 228 -321 0
-356 -228 0
-356 321 0
357 170 -358 0
357 -170 -359 0
-357 -170 359 0
-357 170 358 0
358 228 -349 0
-358 -228 0
-358 349 0
359 228 -352 0
-359 -228 0
-359 352 0
360 234 -332 0
360 234 -261 -361 0
-360 -234 0
-360 261 332 0
-360 332 361 0
361 263 -341 0
361 -263 -362 0
-361 -263 362 0
-361 263 341 0
362 639 -363 0
-362 -639 0
-362 363 0
363 266 -328 0
363 -266 -330 0
-363 -266 330 0
-363 266 328 0
364 -166 300 -377 0
364 166 300 -365 0
-364 -300 0
-364 -166 377 0
-364 166 365 0
-365 168 366 0
-365 -168 374 0
365 -168 -374 0
365 168 -366 0
-366 -170 367 0
-366 170 305 0
366 170 -305 0
366 -170 -367 0
367 -637 172 -371 0
367 637 172 -368 0
-367 -172 0
-367 -637 371 0
-367 637 368 0
368 638 -369 0
368 -638 -370 0
-368 -638 370 0
-368 638 369 0
369 639 -334 0
369 -639 -338 0
-369 -639 338 0
-369 639 334 0
370 639 -339 0
370 -639 -342 0
-370 -639 342 0
-370 639 339 0
371 638 -372 0
-371 -638 0
-371 372 0
372 -345 -373 0
372 639 -373 0
-372 373 0
-372 -639 345 0
-373 639 343 0
373 -639 0
373 -343 0
374 170 -350 0
374 -170 -375 0
-374 -170 375 0
-374 170 350 0
375 228 -376 0
-375 -228 0
-375 376 0
376 638 -370 0
376 -638 -372 0
-376 -638 372 0
-376 638 370 0
377 168 -378 0
377 -168 170 -359 0
-377 -168 -170 0
-377 168 378 0
-377 -168 359 0
378 170 -356 0
378 -170 -379 0
-378 -170 379 0
-378 170 356 0
379 228 -371 0
-379 -228 0
-379 371 0
380 234 -306 0
380 234 -261 -381 0
-380 -234 0
-380 261 306 0
-380 306 381 0
381 263 -322 0
381 -263 -382 0
-381 -263 382 0
-381 263 322 0
382 639 -383 0
-382 -639 0
-382 383 0
383 266 -330 0
-383 -266 0
-383 330 0
-384 385 413 0
-384 144 385 -420 0
384 -385 0
384 -413 420 0
384 -144 -413 0
385 -144 -386 0
385 -386 -397 0
385 -386 398 0
-385 386 0
-385 144 397 -398 0
386 387 -388 0
386 -261 387 -393 0
-386 -387 0
-386 261 388 0
-386 388 393 0
-387 44 234 0
387 -44 0
387 -234 0
388 637 -638 -392 0
388 637 638 -389 0
-388 -637 0
-388 -638 392 0
-388 638 389 0
-389 -639 311 0
-389 639 390 0
389 -639 -311 0
389 639 -390 0
-390 640 391 0
-390 -640 336 0
390 -640 -336 0
390 640 -391 0
391 -582 -641 0
391 -581 641 0
-391 581 641 0
-391 582 -641 0
392 639 -308 0
392 -639 -315 0
-392 -639 315 0
-392 639 308 0
393 263 -394 0
393 -263 -395 0
-393 -263 395 0
-393 263 394 0
394 639 -318 0
394 -639 -323 0
-394 -639 323 0
-394 639 318 0
395 -383 -396 0
395 639 -396 0
-395 396 0
-395 -639 383 0
-396 639 326 0
396 -639 0
396 -326 0
-397 61 145 283 285 0
397 -61 0
397 -285 0
397 -283 0
397 -145 0
-398 166 399 0
-398 -166 408 0
398 -166 -408 0
398 166 -399 0
-399 168 400 0
-399 -168 404 0
399 -168 -404 0
399 168 -400 0
-400 170 401 0
-400 -170 331 0
400 -170 -331 0
400 170 -401 0
401 172 -388 0
401 -637 172 -402 0
-401 -172 0
-401 388 402 0
-401 637 388 0
402 638 -394 0
402 -638 -403 0
-402 -638 403 0
-402 638 394 0
403 639 -396 0
403 640 -330 -396 0
-403 396 0
-403 -639 330 0
-403 -639 -640 0
404 -170 -347 0
404 170 -405 0
-404 170 405 0
-404 -170 347 0
405 -637 172 -407 0
405 637 172 -406 0
-405 -172 0
-405 -637 407 0
-405 637 406 0
406 638 -392 0
406 -638 -394 0
-406 -638 394 0
-406 638 392 0
407 638 -403 0
-407 -638 0
-407 403 0
408 168 -409 0
408 -168 -411 0
-408 -168 411 0
-408 168 409 0
409 -170 -355 0
409 170 -410 0
-409 170 410 0
-409 -170 355 0
410 228 -402 0
-410 -228 0
-410 402 0
411 -170 -358 0
411 170 -412 0
-411 170 412 0
-411 -170 358 0
412 228 -407 0
-412 -228 0
-412 407 0
413 387 -414 0
413 -261 387 -418 0
-413 -387 0
-413 261 414 0
-413 414 418 0
414 637 -638 -369 0
414 637 638 -415 0
-414 -637 0
-414 -638 369 0
-414 638 415 0
-415 -639 335 0
-415 639 416 0
415 -639 -335 0
415 639 -416 0
-416 640 417 0
-416 -640 391 0
416 -640 -391 0
416 640 -417 0
417 -580 -641 0
417 -579 641 0
-417 579 641 0
-417 580 -641 0
418 263 -370 0
418 -263 -419 0
-418 -263 419 0
-418 263 370 0
419 -363 -373 0
419 639 -373 0
-419 373 0
-419 -639 363 0
420 -166 397 -425 0
420 166 397 -421 0
-420 -397 0
-420 -166 425 0
-420 166 421 0
-421 168 422 0
-421 -168 424 0
421 -168 -424 0
421 168 -422 0
-422 -170 401 0
-422 170 423 0
-422 170 -172 0
422 -170 -401 0
422 170 172 -423 0
-423 637 414 0
-423 376 414 0
423 -414 0
423 -637 -376 0
424 170 -367 0
424 -170 -405 0
-424 -170 405 0
-424 170 367 0
425 168 -426 0
425 -168 -427 0
-425 -168 427 0
-425 168 426 0
426 170 -375 0
426 -170 -410 0
-426 -170 410 0
-426 170 375 0
427 170 -379 0
427 -170 -412 0
-427 -170 412 0
-427 170 379 0
-428 429 455 0
-428 144 429 -462 0
428 -429 0
428 -455 462 0
428 -144 -455 0
429 -397 -430 0
429 -430 440 0
429 -144 -430 0
-429 430 0
-429 144 397 -440 0
430 387 -431 0
430 -261 387 -436 0
-430 -387 0
-430 261 431 0
-430 431 436 0
431 637 -638 -435 0
431 637 638 -432 0
-431 -637 0
-431 -638 435 0
-431 638 432 0
-432 -639 189 0
-432 639 433 0
432 -639 -189 0
432 639 -433 0
-433 640 434 0
-433 -640 274 0
433 -640 -274 0
433 640 -434 0
434 -581 -641 0
434 -580 641 0
-434 580 641 0
-434 581 -641 0
435 639 -186 0
435 -639 -193 0
-435 -639 193 0
-435 639 186 0
436 263 -437 0
436 -263 -438 0
-436 -263 438 0
-436 263 437 0
437 639 -196 0
437 -639 -201 0
-437 -639 201 0
-437 639 196 0
438 -265 -439 0
438 639 -439 0
-438 439 0
-438 -639 265 0
-439 639 204 0
439 -639 0
439 -204 0
-440 166 441 0
-440 -166 450 0
440 -166 -450 0
440 166 -441 0
-441 168 442 0
-441 -168 446 0
441 -168 -446 0
441 168 -442 0
-442 170 443 0
-442 -170 270 0
442 -170 -270 0
442 170 -443 0
443 172 -431 0
443 -637 172 -444 0
-443 -172 0
-443 431 444 0
-443 637 431 0
444 638 -437 0
444 -638 -445 0
-444 -638 445 0
-444 638 437 0
445 639 -439 0
445 640 -208 -439 0
-445 439 0
-445 -639 208 0
-445 -639 -640 0
446 -170 -280 0
446 170 -447 0
-446 170 447 0
-446 -170 280 0
447 -637 172 -449 0
447 637 172 -448 0
-447 -172 0
-447 -637 449 0
-447 637 448 0
448 638 -435 0
448 -638 -437 0
-448 -638 437 0
-448 638 435 0
449 638 -445 0
-449 -638 0
-449 445 0
450 168 -451 0
450 -168 -453 0
-450 -168 453 0
-450 168 451 0
451 -170 -291 0
451 170 -452 0
-451 170 452 0
-451 -170 291 0
452 228 -444 0
-452 -228 0
-452 444 0
453 -170 -293 0
453 170 -454 0
-453 170 454 0
-453 -170 293 0
454 228 -449 0
-454 -228 0
-454 449 0
455 387 -456 0
455 -261 387 -460 0
-455 -387 0
-455 261 456 0
-455 456 460 0
456 637 -638 -211 0
456 637 638 -457 0
-456 -637 0
-456 -638 211 0
-456 638 457 0
-457 -639 273 0
-457 639 458 0
457 -639 -273 0
457 639 -458 0
-458 640 459 0
-458 -640 434 0
458 -640 -434 0
458 640 -459 0
459 -579 -641 0
459 -578 641 0
-459 578 641 0
-459 579 -641 0
460 -214 263 0
460 -263 -461 0
-460 214 263 0
-460 -263 461 0
461 -219 -297 0
461 639 -219 0
-461 219 0
-461 -639 297 0
462 -166 397 -467 0
462 166 397 -463 0
-462 -397 0
-462 -166 467 0
-462 166 463 0
-463 168 464 0
-463 -168 466 0
463 -168 -466 0
463 168 -464 0
-464 -170 443 0
-464 170 465 0
-464 170 -172 0
464 -170 -443 0
464 170 172 -465 0
-465 637 456 0
-465 227 456 0
465 -456 0
465 -637 -227 0
466 170 -209 0
466 -170 -447 0
-466 -170 447 0
-466 170 209 0
467 168 -468 0
467 -168 -469 0
-467 -168 469 0
-467 168 468 0
468 170 -226 0
468 -170 -452 0
-468 -170 452 0
-468 170 226 0
469 170 -232 0
469 -170 -454 0
-469 -170 454 0
-469 170 232 0
-470 471 524 546 570 0
470 -570 0
470 -471 0
470 -546 0
470 -524 0
-471 472 490 -511 -516 0
-471 472 490 511 516 0
471 -490 0
471 511 -516 0
471 -472 0
471 -511 516 0
-472 473 -485 -487 0
-472 473 485 487 0
472 -473 0
472 -485 487 0
472 485 -487 0
473 117 301 -474 475 0
-473 474 0
-473 -475 0
-473 -117 0
-473 -301 0
474 166 -168 -230 0
474 166 168 -222 0
-474 -166 0
-474 -168 230 0
-474 168 222 0
475 -261 476 -484 0
475 -224 261 476 0
-475 -476 0
-475 -261 484 0
-475 224 261 0
-476 241 247 477 478 0
476 -478 0
476 -241 0
476 -477 0
476 -247 0
-477 45 240 0
477 -45 0
477 -240 0
-478 254 479 482 0
478 -254 0
478 -479 0
478 -482 0
-479 480 481 0
479 -480 0
479 -481 0
-480 610 3 88 0
480 -88 0
480 -3 0
480 -610 0
-481 237 246 0
481 -237 0
481 -246 0
-482 251 483 0
482 -251 0
482 -483 0
-483 236 250 0
483 -236 0
483 -250 0
484 263 -264 0
-484 -263 0
-484 264 0
485 106 137 166 -486 0
-485 -137 0
-485 486 0
-485 -106 0
-485 -166 0
-486 166 -168 378 0
-486 166 168 374 0
486 -166 0
486 -168 -378 0
486 168 -374 0
487 -261 476 -489 0
487 261 476 -488 0
-487 -476 0
-487 261 488 0
-487 -261 489 0
488 263 -314 0
488 -263 -322 0
-488 -263 322 0
-488 263 314 0
489 263 -382 0
-489 -263 0
-489 382 0
-490 494 505 0
-490 -353 491 494 0
490 -494 0
490 353 -505 0
490 -491 -505 0
-491 139 142 286 492 0
491 -139 0
491 -492 0
491 -286 0
491 -142 0
-492 302 493 0
492 -302 0
492 -493 0
-493 119 166 242 0
493 -119 0
493 -242 0
493 -166 0
494 495 -496 0
494 -495 496 0
-494 -495 -496 0
-494 495 496 0
495 -229 491 0
-495 229 0
-495 -491 0
496 -262 497 499 0
-496 262 0
-496 -497 0
-496 -499 0
-497 252 498 0
497 -252 0
497 -498 0
-498 256 261 0
498 -256 0
498 -261 0
-499 480 483 500 502 0
499 -502 0
499 -480 0
499 -500 0
499 -483 0
-500 241 501 0
500 -241 0
500 -501 0
-501 247 259 0
501 -247 0
501 -259 0
-502 481 503 0
502 -481 0
502 -503 0
-503 477 504 0
503 -477 0
503 -504 0
-504 253 255 0
504 -253 0
504 -255 0
505 -361 506 508 510 0
-505 -510 0
-505 361 0
-505 -508 0
-505 -506 0
-506 502 507 0
506 -502 0
506 -507 0
-507 498 501 0
507 -498 0
507 -501 0
-508 241 509 0
508 -241 0
508 -509 0
-509 236 252 0
509 -236 0
509 -252 0
-510 250 480 0
510 -250 0
510 -480 0
511 107 138 -512 515 0
-511 -107 0
-511 -515 0
-511 512 0
-511 -138 0
512 166 513 -514 0
-512 514 0
-512 -513 0
-512 -166 0
-513 118 131 0
513 -118 0
513 -131 0
514 168 -424 0
514 -168 -426 0
-514 -168 426 0
-514 168 424 0
-515 155 287 0
515 -155 0
515 -287 0
516 517 518 519 -520 0
-516 520 0
-516 -517 0
-516 -518 0
-516 -519 0
-517 259 481 0
517 -259 0
517 -481 0
-518 241 247 255 0
518 -241 0
518 -247 0
518 -255 0
519 -261 419 0
519 -261 -263 0
-519 261 0
-519 263 -419 0
520 263 -521 522 0
520 -370 -521 522 0
-520 -522 0
-520 521 0
-520 -263 370 0
521 -263 482 0
521 -261 482 0
521 -369 482 0
-521 -482 0
-521 261 263 369 0
-522 257 258 523 0
522 -257 0
522 -258 0
522 -523 0
-523 477 480 0
523 -477 0
523 -480 0
-524 525 527 529 535 0
-524 -525 -527 529 535 0
524 -529 0
524 525 -527 0
524 -535 0
524 -525 527 0
525 166 300 -526 0
-525 -166 0
-525 -300 0
-525 526 0
-526 -168 354 0
-526 168 346 0
526 168 -346 0
526 -168 -354 0
527 -261 476 -528 0
527 261 -348 476 0
-527 -476 0
-527 261 348 0
-527 -261 528 0
528 263 -362 0
-528 -263 0
-528 362 0
529 139 513 -530 533 0
-529 -139 0
-529 -533 0
-529 530 0
-529 -513 0
530 143 515 531 -532 0
-530 532 0
-530 -143 0
-530 -531 0
-530 -515 0
-531 3 107 0
531 -3 0
531 -107 0
532 166 -168 -451 0
532 166 168 -446 0
-532 -166 0
-532 -168 451 0
-532 168 446 0
533 -261 476 -534 0
533 261 -448 476 0
-533 -476 0
-533 261 448 0
-533 -261 534 0
534 263 -438 0
-534 -263 0
-534 438 0
-535 536 539 0
-535 -300 539 0
-535 -537 539 0
535 -539 0
535 300 -536 537 0
536 166 -168 -409 0
536 166 168 -404 0
-536 -166 0
-536 -168 409 0
-536 168 404 0
537 -261 476 -538 0
537 261 -406 476 0
-537 -476 0
-537 261 406 0
-537 -261 538 0
538 263 -395 0
-538 -263 0
-538 395 0
-539 -543 545 0
-539 -540 545 0
-539 460 545 0
539 -545 0
539 -460 540 543 0
540 130 493 -541 542 0
-540 -542 0
-540 -130 0
-540 541 0
-540 -493 0
541 125 155 -467 531 0
-541 -125 0
-541 -531 0
-541 467 0
-541 -155 0
-542 139 143 288 0
542 -288 0
542 -143 0
542 -139 0
-543 497 518 523 544 0
543 -544 0
543 -497 0
543 -523 0
543 -518 0
-544 253 483 517 0
544 -253 0
544 -483 0
544 -517 0
545 -418 -491 543 0
545 -418 425 543 0
-545 -543 0
-545 418 0
-545 -425 491 0
-546 547 561 -562 -564 0
-546 547 561 562 564 0
546 -561 0
546 562 -564 0
546 -547 0
546 -562 564 0
-547 548 549 554 556 0
547 -549 0
547 -554 0
547 -548 0
547 -556 0
548 -377 381 491 0
548 -377 491 -543 0
-548 377 0
-548 -491 0
-548 -381 543 0
-549 550 552 0
-549 -289 491 550 0
549 -550 0
549 289 -552 0
549 -491 -552 0
550 168 -453 491 551 0
-550 -168 0
-550 -551 0
-550 -491 0
-550 453 0
551 -534 543 0
-551 534 0
-551 -543 0
552 250 -295 504 553 0
-552 -553 0
-552 -250 0
-552 -504 0
-552 295 0
-553 477 479 507 508 0
553 -508 0
553 -477 0
553 -507 0
553 -479 0
554 168 -411 491 555 0
-554 -168 0
-554 -555 0
-554 -491 0
-554 411 0
555 -538 543 0
-555 538 0
-555 -543 0
-556 557 558 -559 -560 0
-556 -557 -558 -559 -560 0
-556 557 558 559 560 0
-556 -557 -558 559 560 0
556 557 -558 0
556 -557 558 0
556 559 -560 0
556 -559 560 0
557 -450 491 0
-557 450 0
-557 -491 0
558 -436 543 0
-558 436 0
-558 -543 0
559 -408 491 0
-559 408 0
-559 -491 0
560 -393 543 0
-560 393 0
-560 -543 0
561 -364 380 0
-561 364 0
-561 -380 0
562 166 300 -563 0
-562 563 0
-562 -300 0
-562 -166 0
563 168 -466 0
563 -168 -468 0
-563 -168 468 0
-563 168 466 0
564 481 500 565 -567 0
-564 567 0
-564 -481 0
-564 -565 0
-564 -500 0
-565 256 261 0
-565 256 -566 0
565 -256 0
565 -261 566 0
566 263 -461 0
-566 -263 0
-566 461 0
567 -214 -568 569 0
567 263 -568 569 0
-567 -569 0
-567 568 0
-567 214 -263 0
568 -261 509 0
568 -263 509 0
568 -211 509 0
-568 -509 0
-568 211 261 263 0
-569 503 510 0
569 -503 0
569 -510 0
-570 566 572 0
-570 -543 572 0
-570 -571 572 0
570 -572 0
570 543 -566 571 0
571 168 -469 491 0
-571 -491 0
-571 469 0
-571 -168 0
-572 548 550 554 573 0
572 -573 0
572 -554 0
572 -548 0
572 -550 0
573 574 -576 0
573 -574 576 0
-573 -574 -576 0
-573 574 576 0
574 166 300 -575 0
-574 -166 0
-574 -300 0
-574 575 0
-575 -168 290 0
-575 168 279 0
575 168 -279 0
575 -168 -290 0
576 -261 476 -577 0
576 261 -281 476 0
-576 -476 0
-576 261 281 0
-576 -261 577 0
577 263 -296 0
-577 -263 0
-577 296 0
-642 0
2 0

